NAME : kroD100-C-5-1-a__bsl__29637.tour
COMMENT : Length = 29637.000
COMMENT : Generated by compare_sota_instances.py for bsl
TYPE : TOUR
DIMENSION : 100
TOUR_SECTION
1
13
79
88
27
24
50
32
97
94
17
90
98
49
70
89
11
34
81
38
66
23
42
22
58
31
99
45
33
68
14
65
82
21
28
12
47
56
95
10
9
55
87
26
92
19
48
2
30
100
37
51
35
62
16
69
46
52
8
61
74
7
67
36
29
75
72
57
78
80
76
96
86
15
84
41
73
39
54
91
43
77
63
64
85
18
20
25
59
6
40
83
3
5
53
60
44
4
93
71
-1
EOF
